100 63658

 129 559
196 758
140 127
444 147
283 118
312 911
746 382
535 412
665 664
277 584
61 363
319 509
890 137
52 175
856 289
153 958
749 481
311 19
814 195
544 330
567 936
864 175
389 449
548 925
622 946
177 354
362 499
314 141
807 758
848 897
97 930
881 93
213 944
829 239
137 205
6 560
109 433
547 245
39 832
662 317
425 925
630 295
261 640
426 856
87 282
465 17
76 71
471 269
976 325
963 794
414 305
825 451
895 7
726 314
457 817
285 103
239 821
677 193
599 753
653 574
672 529
558 171
372 537
495 251
624 765
919 387
45 207
401 541
247 629
616 416
597 794
450 380
485 144
646 25
620 822
18 668
606 73
662 632
758 824
289 833
414 93
721 505
638 598
235 336
416 425
938 499
499 364
974 947
634 630
650 745
115 199
932 718
674 413
713 339
234 659
540 962
11 937
206 429
679 783
247 899
